N = 11;
H = 5;
T = 2;

avail = array3d(1..N, 1..H, 1..T, [6, 6, 1, 7, 4, 1, 3, 0, 5, 10, 4, 6, 5, 5, 4, 10, 6, 8, 4, 2, 2, 10, 4, 4, 1, 1, 4, 1, 0, 0, 9, 4, 3, 8, 4, 10, 3, 3, 8, 9, 8, 9, 8, 7, 0, 0, 5, 10, 10, 5, 6, 6, 10, 3, 7, 3, 1, 0, 10, 5, 1, 0, 10, 4, 1, 7, 6, 6, 2, 6, 6, 6, 10, 7, 10, 5, 0, 8, 3, 4, 1, 9, 8, 2, 8, 2, 8, 2, 4, 8, 9, 2, 3, 10, 4, 3, 6, 7, 7, 0, 6, 5, 10, 3, 5, 9, 0, 4, 5, 7]);

r = array2d(1..H, 1..T, [5, 3, 5, 2, 5, 3, 3, 0, 0, 4]);
